<instance format="XCSP3" type="CSP">
  <variables>
    <var id="x0"> 7 14 </var>
    <var id="x1"> 1 7 14 </var>
    <var id="x2"> 5 6 13 14 </var>
    <var id="x3"> 1 5 7 13 </var>
    <var id="x4"> 11 </var>
    <var id="x5"> 1 6 7 13 </var>
    <var id="x6"> 5..7 14 </var>
    <var id="x7"> 0 3 7 8 14 </var>
    <var id="x8"> 0 3 7 14 </var>
    <var id="x9"> 0 3 5 6 8 </var>
    <var id="x10"> 5..8 </var>
    <var id="x11"> 0 3 5 6 8 14 </var>
    <var id="x12"> 0 5..7 14 </var>
    <var id="x13"> 0 3 5 6 </var>
    <var id="x14"> 2 7 12 13 </var>
    <var id="x15"> 2 8 10 </var>
    <var id="x16"> 7 8 10 </var>
    <var id="x17"> 7 10 13 </var>
    <var id="x18"> 2 8 10 12 </var>
    <var id="x19"> 4 7 10 13 </var>
    <var id="x20"> 4 10 </var>
    <var id="x21"> 0 3 4 7 8 </var>
    <var id="x22"> 0 3 7 9 </var>
    <var id="x23"> 0 3 7..9 </var>
    <var id="x24"> 6..9 </var>
    <var id="x25"> 0 3 8 </var>
    <var id="x26"> 0 3 6 8 9 </var>
    <var id="x27"> 0 4 6 7 </var>
    <var id="x28"> 7 8 10 14 </var>
    <var id="x29"> 7 8 11 </var>
    <var id="x30"> 7 14 </var>
    <var id="x31"> 5 8 10 </var>
    <var id="x32"> 1 5 7 10 </var>
    <var id="x33"> 8 10 11 </var>
    <var id="x34"> 1 5 7 8 10 </var>
    <var id="x35"> 0 7 9 </var>
    <var id="x36"> 5 6 </var>
    <var id="x37"> 6 7 </var>
    <var id="x38"> 0 5 6 10 </var>
    <var id="x39"> 5..7 9..11 </var>
    <var id="x40"> 0 5 6 9 </var>
    <var id="x41"> 0 5 6 10 11 </var>
    <var id="x42"> 0 7 8 11..13 </var>
    <var id="x43"> 8 13 14 </var>
    <var id="x44"> 7 12..14 </var>
    <var id="x45"> 7 8 10 11 </var>
    <var id="x46"> 0 8 10..12 </var>
    <var id="x47"> 0 8 14 </var>
    <var id="x48"> 0 7 12 14 </var>
    <var id="x49"> 0 10 11 </var>
    <var id="x50"> 0 1 3 </var>
    <var id="x51"> 0 13 </var>
    <var id="x52"> 6 8 13 </var>
    <var id="x53"> 3 6 13 </var>
    <var id="x54"> 0 3 6 8 10 </var>
    <var id="x55"> 0 1 6 10 13 </var>
    <var id="x56"> 0 3 6 10 </var>
    <var id="x57"> 0 3 9 12 </var>
    <var id="x58"> 5 14 </var>
    <var id="x59"> 0 3 10 12 </var>
    <var id="x60"> 0 10 </var>
    <var id="x61"> 0 5 12 14 </var>
    <var id="x62"> 5 9 10 </var>
    <var id="x63"> 0 3 5 10 </var>
    <var id="x64"> 0 3 7 12 </var>
    <var id="x65"> 0 3 7 12 13 </var>
    <var id="x66"> 0 7 12 13 </var>
    <var id="x67"> 4 6 13 </var>
    <var id="x68"> 3 4 6 7 12 13 </var>
    <var id="x69"> 0 3 6 </var>
    <var id="x70"> 7 </var>
    <var id="x71"> 0 4 10 </var>
    <var id="x72"> 0 2 12 </var>
    <var id="x73"> 4 12 </var>
    <var id="x74"> 0 5 10 </var>
    <var id="x75"> 0 2 10 12 </var>
    <var id="x76"> 0 5 9 </var>
    <var id="x77"> 2 5 9 10 </var>
    <var id="x78"> 1 3 9 14 </var>
    <var id="x79"> 2 14 </var>
    <var id="x80"> 2 3 6 10 </var>
    <var id="x81"> 1 3 10 </var>
    <var id="x82"> 3 6 9 14 </var>
    <var id="x83"> 1 6 10 </var>
    <var id="x84"> 3 6 10 </var>
    <var id="x85"> 0 3 4 7 8 14 </var>
    <var id="x86"> 0 3 7 8 12 </var>
    <var id="x87"> 0 7 12 14 </var>
    <var id="x88"> 7 8 </var>
    <var id="x89"> 0 3 7 </var>
    <var id="x90"> 0 4 7 12 14 </var>
    <var id="x91"> 7 8 </var>
    <var id="x92"> 0 3 4 </var>
    <var id="x93"> 0 3 13 </var>
    <var id="x94"> 2 4..6 13 </var>
    <var id="x95"> 5 6 </var>
    <var id="x96"> 0 4 6 13 </var>
    <var id="x97"> 0 4..6 </var>
    <var id="x98"> 2 5 </var>
    <var id="x99"> 0 3 7 8 11 </var>
    <var id="x100"> 0 2 7 11 </var>
    <var id="x101"> 3 7 </var>
    <var id="x102"> 0 2 3 5 8 </var>
    <var id="x103"> 0 3 5 7 </var>
    <var id="x104"> 0 5 7 </var>
    <var id="x105"> 2 5 7 8 </var>
  </variables>
  <constraints>
    <group>
      <allDifferent> %... </allDifferent>
      <args> x0 x1 x2 x3 x4 x5 x6 </args>
      <args> x7 x8 x9 x10 x11 x12 x13 </args>
      <args> x14 x15 x16 x17 x18 x19 x20 </args>
      <args> x21 x22 x23 x24 x25 x26 x27 </args>
      <args> x28 x29 x30 x31 x32 x33 x34 </args>
      <args> x35 x36 x37 x38 x39 x40 x41 </args>
      <args> x42 x43 x44 x45 x46 x47 x48 x49 </args>
      <args> x50 x51 x52 x53 x54 x55 x56 </args>
      <args> x57 x58 x59 x60 x61 x62 x63 </args>
      <args> x64 x65 x66 x67 x68 x69 x70 </args>
      <args> x71 x72 x73 x74 x75 x76 x77 </args>
      <args> x78 x79 x80 x81 x82 x83 x84 </args>
      <args> x85 x86 x87 x88 x89 x90 x91 </args>
      <args> x92 x93 x94 x95 x96 x97 x98 </args>
      <args> x99 x100 x101 x102 x103 x104 x105 </args>
      <args> x0 x7 x21 x28 x71 x85 x92 </args>
      <args> x1 x8 x22 x35 x50 x64 x78 </args>
      <args> x23 x29 x42 x57 x65 x86 x93 x99 </args>
      <args> x14 x51 x66 x72 x79 x87 x100 </args>
      <args> x2 x36 x43 x52 x58 x67 x94 </args>
      <args> x30 x37 x44 x53 x68 x73 x101 </args>
      <args> x9 x15 x31 x38 x54 x80 x102 </args>
      <args> x10 x16 x24 x39 x45 x88 x95 </args>
      <args> x3 x17 x32 x74 x81 x89 x103 </args>
      <args> x4 x18 x25 x33 x46 x59 x75 </args>
      <args> x11 x26 x40 x47 x69 x76 x82 </args>
      <args> x5 x19 x27 x55 x60 x83 x96 </args>
      <args> x6 x12 x48 x61 x90 x97 x104 </args>
      <args> x34 x62 x70 x77 x91 x98 x105 </args>
      <args> x13 x20 x41 x49 x56 x63 x84 </args>
    </group>
  </constraints>
</instance>

